&CONTROL
    calculation      = 'relax'
    prefix           = 'ZrO2_cubic'
    pseudo_dir       = './pseudos'
    outdir           = './tmp'
    verbosity        = 'high'
    tprnfor          = .true.
/
&SYSTEM
    ibrav     = 2
    celldm(1) = 9.618
    nat       = 3
    ntyp      = 2
    ecutwfc   = 60
    ecutrho   = 480
    occupations = 'smearing'
    smearing    = 'gaussian'
    degauss     = 0.005
/
&ELECTRONS
    conv_thr    = 1e-06
    mixing_beta = 0.3
/
&IONS
/
ATOMIC_SPECIES
Zr 91.224 Zr.pbe-spn-kjpaw_psl.1.0.0.UPF
O  15.999 O.pbe-n-kjpaw_psl.1.0.0.UPF
ATOMIC_POSITIONS crystal
Zr 0.00 0.00 0.00
O  0.25 0.25 0.25
O  0.75 0.75 0.75
K_POINTS automatic
6 6 6 0 0 0