&CONTROL
   calculation      = 'relax'
   verbosity        = 'high'
   restart_mode     = 'from_scratch'
   nstep            = 100
   tprnfor          = .true.
   outdir           = './tmp'
   prefix           = 'calc_10ScSZ_Vac_1Sc_3Zr'
   etot_conv_thr    = 0.0001
   forc_conv_thr    = 0.001
   disk_io          = 'none'
   pseudo_dir       = './pseudos'
/
&SYSTEM
   ecutwfc          = 60
   ecutrho          = 480
   occupations      = 'smearing'
   degauss          = 0.005
   smearing         = 'gaussian'
   ntyp             = 3
   nat              = 95
   ibrav            = 0
/
&ELECTRONS
   electron_maxstep = 100
   conv_thr         = 1e-06
   mixing_beta      = 0.3
   diagonalization  = 'david'
/
&IONS
/
&CELL
/
&FCP
/
&RISM
/
ATOMIC_SPECIES
Zr 91.224 Zr.pbe-spn-kjpaw_psl.1.0.0.UPF
O 15.999 O.pbe-n-kjpaw_psl.1.0.0.UPF
Sc 44.955908 Sc.pbe-spn-kjpaw_psl.1.0.0.UPF

K_POINTS automatic
2 2 2  0 0 0

CELL_PARAMETERS angstrom
10.25000000000000 0.00000000000000 0.00000000000000
0.00000000000000 10.25000000000000 0.00000000000000
0.00000000000000 0.00000000000000 10.25000000000000

ATOMIC_POSITIONS angstrom
Zr 0.0049671415 -0.0013826430 0.0064768854  
O 1.2964802986 1.2789084663 1.2789086304  
Zr 0.0054256004 2.5578658231 2.5578427025  
O 1.2836696227 3.8246171976 3.8265008217  
O 3.8381271247 1.2711216888 1.2843924733  
Zr 2.5534197592 -0.0141230370 2.5771564877  
O 3.8414922370 1.2819252820 3.8295025181  
O 1.2758061728 3.8448592259 1.2697400642  
Zr 2.5662569802 2.5564936131 -0.0029169375  
O 3.8377329339 3.8622727818 1.2811150278  
O 1.2706728907 1.2894754491 3.8315415635  
Zr 0.0020886360 -0.0195967012 5.1117181395  
O 1.2832186124 1.2886346658 6.4079636828  
O 3.8425935172 3.8407389630 8.9539647801  
Zr -0.0071984421 2.5578936123 7.6980712223  
O 1.2846861829 3.8261195984 8.9719908397  
O 3.8398991772 1.2744807800 6.4123667629  
Zr 2.5728099952 0.0093128012 7.6791078248  
O 3.8406578762 1.2845626343 8.9785054513  
O 1.2764582576 3.8418934102 6.3951866503  
Zr 2.5505379338 2.5706252582 5.1385624003  
O 3.8430298988 3.8537853290 6.4098663603  
O 1.2747988025 1.2848639561 8.9841303657  
Zr -0.0003582604 5.1406464366 -0.0261974510  
O 1.2894690250 6.4071204707 1.2782599265  
O 3.8446676078 8.9488743109 3.8415532811  
Sc 0.0035711257 7.7022789404 2.5573172978  
O 1.2731650640 8.9637324296 3.8529040212  
O 3.8470375111 6.4009523980 1.2863826743  
Sc 2.5634707755 5.1346864499 2.5554794691  
O 3.8404733785 6.4023289185 3.8291148505  
O 1.2842112028 8.9713605527 1.2813011346  
Sc 2.5601541287 7.6733462926 -0.0042064532  
O 3.8403228548 8.9607272273 1.2796371429  
O 1.2852905086 6.4251118590 3.8454957781  
Zr 0.0025755039 5.1242555408 5.1058122878  
O 1.2809848612 6.4068523021 6.4308824211  
O 3.8418263904 8.9717654734 8.9684028823  
Zr -0.0116867804 7.6989282281 7.6950193303  
O 1.2891603195 8.9596561255 8.9827779431  
O 3.8297314894 6.4121185709 6.4281545563  
Zr 2.5525946367 5.1193370227 7.6884965137  
O 3.8387152435 6.3907433657 8.9694356297  
O 1.2706269629 8.9734859243 6.3970557577  
Sc 2.5779993441 7.6796674671 5.1217793848  
O 3.8518851722 8.9564413568 6.4085245993  
O 1.2943214275 6.3901751677 8.9705963386  
Zr 5.1275988279 0.0078182287 -0.0123695071  
O 6.3930454339 1.2864694157 1.2842198467  
O 8.9712549285 3.8472144821 3.8369497528  
Zr 5.1273225370 2.5654307247 2.5553564858  
O 6.4249077451 3.8484883292 3.8318369650  
O 8.9753155361 1.2715031833 1.2891208460  
Sc 7.6990859558 -0.0082068232 2.5721337613  
O 8.9728778093 1.2894706016 3.8627179298  
O 6.4037961188 3.8362126384 1.2723548557  
Zr 7.6793418972 2.5617289829 0.0034115197  
O 8.9715169080 3.8520218325 1.2813800189  
O 6.4207853408 1.2786034317 3.8709516917  
Zr 5.1312566735 -0.0085715756 5.1142910750  
O 6.4110747242 1.2790153721 6.4133900049  
O 8.9734823762 3.8430217109 8.9602820628  
Zr 5.1098515278 2.5580348505 7.6960639879  
O 6.4083909374 3.8312926122 8.9704818093  
O 8.9726031738 1.2724114256 6.4077872511  
Zr 7.6880820872 -0.0114297030 7.6910778736  
O 8.9743578453 1.2920805124 8.9792880205  
O 6.3924733063 3.8343717496 6.4114003527  
Zr 7.6926378595 2.5676504769 5.1635273149  
O 8.9744589051 3.8551056564 6.4157900176  
O 6.4127639125 1.2780973076 8.9763396922  
Zr 5.1172717479 5.1226318139 -0.0048536355  
O 6.4070687414 6.4293965857 1.2625773481  
O 8.9756126019 8.9526228413 3.8390306813  
Zr 5.1358895060 7.6881428002 2.5517225522  
O 6.3990969629 8.9755459775 3.8364463337  
O 8.9709145859 6.4067057184 1.2747339965  
Zr 7.7089394409 5.1313391902 2.5422485741  
O 8.9706145431 6.3996321354 3.8522743333  
O 6.3983247926 8.9676026356 1.2862998728  
Zr 7.6961575519 7.6754970359 -0.0033450124  
O 8.9640005469 8.9622167077 1.2989045424  
O 6.4102998171 6.3936411605 3.8529286195  
Zr 5.1462215620 5.1353246526 5.1098063003  
O 6.4014076593 6.4189191115 6.3991733053  
O 8.9731881943 8.9764963405 8.9594806953  
Sc 5.1244047464 7.6550873266 7.6772561236  
O 6.4037243185 8.9562721682 8.9850741130  
O 8.9544485862 6.4018495551 6.4075574058  
Zr 7.7019127329 5.1106413785 7.6991316375  
O 8.9688523306 6.3964349135 8.9733710347  
O 6.4082405970 8.9627478312 6.4069480208  
Zr 7.6836468640 7.6886351735 5.1316213067  
O 8.9846101682 8.9563718450 6.4275803337  
O 6.3867291220 6.4047321490 8.9746331721  

